牛客/2019暑期多校训练营/数据/9_D_Knapsack Cryptosystem/6.in
36 5079014594580418
241551040184725 198326594337448 68653256795617 335633107928682 498368432468256 236492474584463 455189314269989 221362105432687 374161609367777 417929987003174 300277541920287 71527029772105 218415808393307 22536907321804 237000145072487 396943287924999 398357514172353 376101649113018 344798396530196 427503295167323 62951286858111 525076025868140 464637138184997 454867357836355 256249207304100 288099818297594 228465216400594 408237104772962 226851012034374 38256605690360 220394196430042 76468371971672 26935632937309 263525831537373 266624379410546 48305675272044
